(set-logic BV)
(declare-fun _substvar_1509_ () Bool)
(declare-fun _substvar_1647_ () Bool)
(declare-fun _substvar_1667_ () Bool)
(declare-fun _substvar_1686_ () Bool)
(declare-fun _substvar_1783_ () (_ BitVec 32))
(declare-fun _substvar_1827_ () Bool)
(declare-fun _substvar_1853_ () Bool)
(declare-fun _substvar_1862_ () Bool)
(declare-fun _substvar_1977_ () Bool)
(declare-fun _substvar_1988_ () Bool)
(declare-fun _substvar_2023_ () Bool)
(declare-fun _substvar_2031_ () Bool)
(declare-fun x1 () (_ BitVec 32))
(assert (or (exists ((?y1 (_ BitVec 32))) (forall ((?y2 (_ BitVec 32))) (forall ((?y3 (_ BitVec 32))) (or (and (bvslt (bvadd (bvadd (bvmul (_ bv22 32) ?y2) (bvmul (_ bv6 32) ?y1)) (bvmul (_ bv46 32) x1)) (_ bv0 32)) (bvsle (bvadd (bvadd (bvmul (_ bv27 32) ?y2) (bvmul (bvneg (_ bv60 32)) ?y1)) (bvmul (_ bv43 32) x1)) (_ bv6 32))) (not (= (bvadd ?y2 _substvar_1783_) (_ bv6 32))))))) (or (and (or (or (exists ((?y2 (_ BitVec 32))) (exists ((?y3 (_ BitVec 32))) _substvar_2031_)) (and (forall ((?y2 (_ BitVec 32))) (forall ((?y3 (_ BitVec 32))) _substvar_1667_)) (or (exists ((?y2 (_ BitVec 32))) (forall ((?y3 (_ BitVec 32))) _substvar_1686_)) (forall ((?y2 (_ BitVec 32))) _substvar_2023_)))) (forall ((?y2 (_ BitVec 32))) (exists ((?y3 (_ BitVec 32))) _substvar_1827_))) (exists ((?y2 (_ BitVec 32))) (exists ((?y3 (_ BitVec 32))) _substvar_1647_))) (and (exists ((?y1 (_ BitVec 32))) (exists ((?y2 (_ BitVec 32))) (and (forall ((?y3 (_ BitVec 32))) _substvar_1509_) (forall ((?y3 (_ BitVec 32))) _substvar_1853_)))) (exists ((?y1 (_ BitVec 32))) (or (exists ((?y2 (_ BitVec 32))) _substvar_1862_) (exists ((?y2 (_ BitVec 32))) (and (forall ((?y3 (_ BitVec 32))) _substvar_1988_) (forall ((?y3 (_ BitVec 32))) _substvar_1977_)))))))))
(check-sat)
(exit)
